(set-logic BV) (define-fun origCir ((n164 Bool) (n152 Bool) (n121 Bool) (n90 Bool)) Bool (and n164 (and n152 (and n121 n90)))) (synth-fun skel ((n164 Bool) (n152 Bool) (n121 Bool) (n90 Bool)) Bool) (declare-var n164 Bool) (declare-var n152 Bool) (declare-var n121 Bool) (declare-var n90 Bool) (constraint (= (origCir n164 n152 n121 n90) (skel n164 n152 n121 n90))) (check-synth)
